p cnf 372 546
-1 -33 0 
1 2 33 0 
-2 -33 0 
-3 -34 0 
3 -33 34 0 
-4 -35 0 
4 -34 35 0 
-5 -36 0 
5 -35 36 0 
-6 -37 0 
6 -36 37 0 
-7 -38 0 
7 -37 38 0 
-8 -39 0 
8 -38 39 0 
-9 -40 0 
9 -39 40 0 
-10 -41 0 
10 -40 41 0 
-11 -42 0 
11 -41 42 0 
-12 -43 0 
12 -42 43 0 
-13 -44 0 
13 -43 44 0 
-14 -45 0 
14 -44 45 0 
-15 -46 0 
15 -45 46 0 
-16 -47 0 
16 -46 47 0 
-17 -48 0 
17 -47 48 0 
-18 -49 0 
18 -48 49 0 
-19 -50 0 
19 -49 50 0 
-20 -51 0 
20 -50 51 0 
-21 -52 0 
21 -51 52 0 
-22 -53 0 
22 -52 53 0 
-23 -54 0 
23 -53 54 0 
-24 -55 0 
24 -54 55 0 
-25 -56 0 
25 -55 56 0 
-26 -57 0 
26 -56 57 0 
-27 -58 0 
27 -57 58 0 
-28 -59 0 
28 -58 59 0 
-29 -60 0 
29 -59 60 0 
-30 -61 0 
30 -60 61 0 
-31 -62 0 
31 -61 62 0 
32 -62 0 
33 -34 0 
34 -35 0 
35 -36 0 
36 -37 0 
37 -38 0 
38 -39 0 
39 -40 0 
40 -41 0 
41 -42 0 
42 -43 0 
43 -44 0 
44 -45 0 
45 -46 0 
46 -47 0 
47 -48 0 
48 -49 0 
49 -50 0 
50 -51 0 
51 -52 0 
52 -53 0 
53 -54 0 
54 -55 0 
55 -56 0 
56 -57 0 
57 -58 0 
58 -59 0 
59 -60 0 
60 -61 0 
61 -62 0 
-63 -95 0 
63 64 95 0 
-64 -95 0 
-65 -96 0 
65 -95 96 0 
-66 -97 0 
66 -96 97 0 
-67 -98 0 
67 -97 98 0 
-68 -99 0 
68 -98 99 0 
-69 -100 0 
69 -99 100 0 
-70 -101 0 
70 -100 101 0 
-71 -102 0 
71 -101 102 0 
-72 -103 0 
72 -102 103 0 
-73 -104 0 
73 -103 104 0 
-74 -105 0 
74 -104 105 0 
-75 -106 0 
75 -105 106 0 
-76 -107 0 
76 -106 107 0 
-77 -108 0 
77 -107 108 0 
-78 -109 0 
78 -108 109 0 
-79 -110 0 
79 -109 110 0 
-80 -111 0 
80 -110 111 0 
-81 -112 0 
81 -111 112 0 
-82 -113 0 
82 -112 113 0 
-83 -114 0 
83 -113 114 0 
-84 -115 0 
84 -114 115 0 
-85 -116 0 
85 -115 116 0 
-86 -117 0 
86 -116 117 0 
-87 -118 0 
87 -117 118 0 
-88 -119 0 
88 -118 119 0 
-89 -120 0 
89 -119 120 0 
-90 -121 0 
90 -120 121 0 
-91 -122 0 
91 -121 122 0 
-92 -123 0 
92 -122 123 0 
-93 -124 0 
93 -123 124 0 
94 -124 0 
95 -96 0 
96 -97 0 
97 -98 0 
98 -99 0 
99 -100 0 
100 -101 0 
101 -102 0 
102 -103 0 
103 -104 0 
104 -105 0 
105 -106 0 
106 -107 0 
107 -108 0 
108 -109 0 
109 -110 0 
110 -111 0 
111 -112 0 
112 -113 0 
113 -114 0 
114 -115 0 
115 -116 0 
116 -117 0 
117 -118 0 
118 -119 0 
119 -120 0 
120 -121 0 
121 -122 0 
122 -123 0 
123 -124 0 
-125 -157 0 
125 126 157 0 
-126 -157 0 
-127 -158 0 
127 -157 158 0 
-128 -159 0 
128 -158 159 0 
-129 -160 0 
129 -159 160 0 
-130 -161 0 
130 -160 161 0 
-131 -162 0 
131 -161 162 0 
-132 -163 0 
132 -162 163 0 
-133 -164 0 
133 -163 164 0 
-134 -165 0 
134 -164 165 0 
-135 -166 0 
135 -165 166 0 
-136 -167 0 
136 -166 167 0 
-137 -168 0 
137 -167 168 0 
-138 -169 0 
138 -168 169 0 
-139 -170 0 
139 -169 170 0 
-140 -171 0 
140 -170 171 0 
-141 -172 0 
141 -171 172 0 
-142 -173 0 
142 -172 173 0 
-143 -174 0 
143 -173 174 0 
-144 -175 0 
144 -174 175 0 
-145 -176 0 
145 -175 176 0 
-146 -177 0 
146 -176 177 0 
-147 -178 0 
147 -177 178 0 
-148 -179 0 
148 -178 179 0 
-149 -180 0 
149 -179 180 0 
-150 -181 0 
150 -180 181 0 
-151 -182 0 
151 -181 182 0 
-152 -183 0 
152 -182 183 0 
-153 -184 0 
153 -183 184 0 
-154 -185 0 
154 -184 185 0 
-155 -186 0 
155 -185 186 0 
156 -186 0 
157 -158 0 
158 -159 0 
159 -160 0 
160 -161 0 
161 -162 0 
162 -163 0 
163 -164 0 
164 -165 0 
165 -166 0 
166 -167 0 
167 -168 0 
168 -169 0 
169 -170 0 
170 -171 0 
171 -172 0 
172 -173 0 
173 -174 0 
174 -175 0 
175 -176 0 
176 -177 0 
177 -178 0 
178 -179 0 
179 -180 0 
180 -181 0 
181 -182 0 
182 -183 0 
183 -184 0 
184 -185 0 
185 -186 0 
-187 -219 0 
187 188 219 0 
-188 -219 0 
-189 -220 0 
189 -219 220 0 
-190 -221 0 
190 -220 221 0 
-191 -222 0 
191 -221 222 0 
-192 -223 0 
192 -222 223 0 
-193 -224 0 
193 -223 224 0 
-194 -225 0 
194 -224 225 0 
-195 -226 0 
195 -225 226 0 
-196 -227 0 
196 -226 227 0 
-197 -228 0 
197 -227 228 0 
-198 -229 0 
198 -228 229 0 
-199 -230 0 
199 -229 230 0 
-200 -231 0 
200 -230 231 0 
-201 -232 0 
201 -231 232 0 
-202 -233 0 
202 -232 233 0 
-203 -234 0 
203 -233 234 0 
-204 -235 0 
204 -234 235 0 
-205 -236 0 
205 -235 236 0 
-206 -237 0 
206 -236 237 0 
-207 -238 0 
207 -237 238 0 
-208 -239 0 
208 -238 239 0 
-209 -240 0 
209 -239 240 0 
-210 -241 0 
210 -240 241 0 
-211 -242 0 
211 -241 242 0 
-212 -243 0 
212 -242 243 0 
-213 -244 0 
213 -243 244 0 
-214 -245 0 
214 -244 245 0 
-215 -246 0 
215 -245 246 0 
-216 -247 0 
216 -246 247 0 
-217 -248 0 
217 -247 248 0 
218 -248 0 
219 -220 0 
220 -221 0 
221 -222 0 
222 -223 0 
223 -224 0 
224 -225 0 
225 -226 0 
226 -227 0 
227 -228 0 
228 -229 0 
229 -230 0 
230 -231 0 
231 -232 0 
232 -233 0 
233 -234 0 
234 -235 0 
235 -236 0 
236 -237 0 
237 -238 0 
238 -239 0 
239 -240 0 
240 -241 0 
241 -242 0 
242 -243 0 
243 -244 0 
244 -245 0 
245 -246 0 
246 -247 0 
247 -248 0 
-249 -281 0 
249 250 281 0 
-250 -281 0 
-251 -282 0 
251 -281 282 0 
-252 -283 0 
252 -282 283 0 
-253 -284 0 
253 -283 284 0 
-254 -285 0 
254 -284 285 0 
-255 -286 0 
255 -285 286 0 
-256 -287 0 
256 -286 287 0 
-257 -288 0 
257 -287 288 0 
-258 -289 0 
258 -288 289 0 
-259 -290 0 
259 -289 290 0 
-260 -291 0 
260 -290 291 0 
-261 -292 0 
261 -291 292 0 
-262 -293 0 
262 -292 293 0 
-263 -294 0 
263 -293 294 0 
-264 -295 0 
264 -294 295 0 
-265 -296 0 
265 -295 296 0 
-266 -297 0 
266 -296 297 0 
-267 -298 0 
267 -297 298 0 
-268 -299 0 
268 -298 299 0 
-269 -300 0 
269 -299 300 0 
-270 -301 0 
270 -300 301 0 
-271 -302 0 
271 -301 302 0 
-272 -303 0 
272 -302 303 0 
-273 -304 0 
273 -303 304 0 
-274 -305 0 
274 -304 305 0 
-275 -306 0 
275 -305 306 0 
-276 -307 0 
276 -306 307 0 
-277 -308 0 
277 -307 308 0 
-278 -309 0 
278 -308 309 0 
-279 -310 0 
279 -309 310 0 
280 -310 0 
281 -282 0 
282 -283 0 
283 -284 0 
284 -285 0 
285 -286 0 
286 -287 0 
287 -288 0 
288 -289 0 
289 -290 0 
290 -291 0 
291 -292 0 
292 -293 0 
293 -294 0 
294 -295 0 
295 -296 0 
296 -297 0 
297 -298 0 
298 -299 0 
299 -300 0 
300 -301 0 
301 -302 0 
302 -303 0 
303 -304 0 
304 -305 0 
305 -306 0 
306 -307 0 
307 -308 0 
308 -309 0 
309 -310 0 
-311 -343 0 
311 312 343 0 
-312 -343 0 
-313 -344 0 
313 -343 344 0 
-314 -345 0 
314 -344 345 0 
-315 -346 0 
315 -345 346 0 
-316 -347 0 
316 -346 347 0 
-317 -348 0 
317 -347 348 0 
-318 -349 0 
318 -348 349 0 
-319 -350 0 
319 -349 350 0 
-320 -351 0 
320 -350 351 0 
-321 -352 0 
321 -351 352 0 
-322 -353 0 
322 -352 353 0 
-323 -354 0 
323 -353 354 0 
-324 -355 0 
324 -354 355 0 
-325 -356 0 
325 -355 356 0 
-326 -357 0 
326 -356 357 0 
-327 -358 0 
327 -357 358 0 
-328 -359 0 
328 -358 359 0 
-329 -360 0 
329 -359 360 0 
-330 -361 0 
330 -360 361 0 
-331 -362 0 
331 -361 362 0 
-332 -363 0 
332 -362 363 0 
-333 -364 0 
333 -363 364 0 
-334 -365 0 
334 -364 365 0 
-335 -366 0 
335 -365 366 0 
-336 -367 0 
336 -366 367 0 
-337 -368 0 
337 -367 368 0 
-338 -369 0 
338 -368 369 0 
-339 -370 0 
339 -369 370 0 
-340 -371 0 
340 -370 371 0 
-341 -372 0 
341 -371 372 0 
342 -372 0 
343 -344 0 
344 -345 0 
345 -346 0 
346 -347 0 
347 -348 0 
348 -349 0 
349 -350 0 
350 -351 0 
351 -352 0 
352 -353 0 
353 -354 0 
354 -355 0 
355 -356 0 
356 -357 0 
357 -358 0 
358 -359 0 
359 -360 0 
360 -361 0 
361 -362 0 
362 -363 0 
363 -364 0 
364 -365 0 
365 -366 0 
366 -367 0 
367 -368 0 
368 -369 0 
369 -370 0 
370 -371 0 
371 -372 0 
